************************************************************************
file with basedata            : mm20_.bas
initial value random generator: 1638
************************************************************************
projects                      :  1
jobs (incl. supersource/sink ):  12
horizon                       :  77
RESOURCES
  - renewable                 :  2   R
  - nonrenewable              :  2   N
  - doubly constrained        :  0   D
************************************************************************
PROJECT INFORMATION:
pronr.  #jobs rel.date duedate tardcost  MPM-Time
    1     10      0       12        6       12
************************************************************************
PRECEDENCE RELATIONS:
jobnr.    #modes  #successors   successors
   1        1          3           2   3   4
   2        3          2           5   6
   3        3          1          11
   4        3          2           6   8
   5        3          2           8   9
   6        3          1           7
   7        3          3           9  10  11
   8        3          1          11
   9        3          1          12
  10        3          1          12
  11        3          1          12
  12        1          0        
************************************************************************
REQUESTS/DURATIONS:
jobnr. mode duration  R 1  R 2  N 1  N 2
------------------------------------------------------------------------
  1      1     0       0    0    0    0
  2      1     1       0    6    8    0
         2     7       0    5    0    5
         3    10       3    0    4    0
  3      1     2       7    0    0    9
         2     7       0    5    0    6
         3     9       4    0   10    0
  4      1     4       8    0    0   10
         2     7       3    0    0   10
         3     7       0    3    6    0
  5      1     5       0    5    5    0
         2     9       0    4    3    0
         3    10       0    1    1    0
  6      1     1      10    0    3    0
         2     1       0    7    6    0
         3     2       0    7    0    7
  7      1     2       8    0    0    8
         2     5       6    0    0    4
         3     6       4    0    8    0
  8      1     5      10    0    0    5
         2     8       9    0    9    0
         3     9       8    0    8    0
  9      1     1       7    0    0    8
         2     3       0    9    6    0
         3     7       5    0    0    6
 10      1     5      10    0    5    0
         2     5       9    0    7    0
         3     7       6    0    0    6
 11      1     1       0    9    0    7
         2     2       0    7    0    7
         3    10       0    6   10    0
 12      1     0       0    0    0    0
************************************************************************
RESOURCEAVAILABILITIES:
  R 1  R 2  N 1  N 2
   21   14   75   65
************************************************************************
MAXIMAL LAGS:
from  to  type  delay
    1   12   ES      0
    1    2   ES      0
    2   12   ES      0
    1    3   ES      0
    3   12   ES      0
    1    4   ES      0
    4   12   ES      0
    1    5   ES      0
    5   12   ES      0
    1    6   ES      0
    6   12   ES      0
    1    7   ES      0
    7   12   ES      0
    1    8   ES      0
    8   12   ES      0
    1    9   ES      0
    9   12   ES      0
    1   10   ES      0
   10   12   ES      0
    1   11   ES      0
   11   12   ES      0
    1   12   ES      0
    2    5   SS     11
    2    5   SE      7
    2    5   ES     -5
    2    5   EE      2
    2    6   SS     -1
    2    6   SE      6
    2    6   ES      3
    2    6   EE     12
    3   11   SS     12
    3   11   SE     -6
    3   11   ES     11
    3   11   EE      5
    4    6   SS     12
    4    6   SE     -5
    4    6   ES     -8
    4    6   EE    -12
    4    8   SS      1
    4    8   SE    -12
    4    8   ES     -5
    4    8   EE      5
    5    8   SS     -1
    5    8   SE      8
    5    8   ES     10
    5    8   EE    -12
    5    9   SS     -2
    5    9   SE    -12
    5    9   ES     12
    5    9   EE      9
    6    7   SS      0
    6    7   SE     11
    6    7   ES     11
    6    7   EE     -3
    7    9   SS     -9
    7    9   SE     -6
    7    9   ES      4
    7    9   EE     -5
    7   10   SS      1
    7   10   SE      3
    7   10   ES    -11
    7   10   EE     -8
    7   11   SS     10
    7   11   SE     -4
    7   11   ES    -10
    7   11   EE    -11
    8   11   SS     -5
    8   11   SE      4
    8   11   ES      1
    8   11   EE     10
************************************************************************
